NAME 
ROWS
 N  OBJ
 L  R0      
 L  R1      
 E  R2      
COLUMNS
    MARKER    'MARKER'                 'INTORG'
    I0(3)     OBJ       -986
    I0(3)     R0        -871
    I0(3)     R1        -190
    I0(3)     R2        915
    I1(3)     OBJ       -265
    I1(3)     R0        -953
    I1(3)     R1        -887
    I1(3)     R2        877
    I2(3)     OBJ       -139
    I2(3)     R0        -497
    I2(3)     R1        -15
    I2(3)     R2        391
    I3(3)     OBJ       -686
    I3(3)     R0        -9
    I3(3)     R1        -686
    I3(3)     R2        929
    I4(3)     OBJ       -19
    I4(3)     R0        -638
    I4(3)     R1        -896
    I4(3)     R2        563
    I5(3)     OBJ       -225
    I5(3)     R0        -515
    I5(3)     R1        -652
    I5(3)     R2        286
    I6(3)     OBJ       -637
    I6(3)     R0        -234
    I6(3)     R1        -201
    I6(3)     R2        581
    I7(3)     OBJ       -174
    I7(3)     R0        -275
    I7(3)     R1        -129
    I7(3)     R2        763
    I8(3)     OBJ       -301
    I8(3)     R0        -689
    I8(3)     R1        -926
    I8(3)     R2        414
    I9(3)     OBJ       -551
    I9(3)     R0        -534
    I9(3)     R1        -889
    I9(3)     R2        507
    I10(3)    OBJ       -36
    I10(3)    R0        -825
    I10(3)    R1        -662
    I10(3)    R2        652
    I11(3)    OBJ       -680
    I11(3)    R0        -724
    I11(3)    R1        -751
    I11(3)    R2        76
    I12(3)    OBJ       -44
    I12(3)    R0        -213
    I12(3)    R1        -613
    I12(3)    R2        257
    I13(3)    OBJ       -568
    I13(3)    R0        -869
    I13(3)    R1        -874
    I13(3)    R2        265
    I14(3)    OBJ       -956
    I14(3)    R0        -292
    I14(3)    R1        -619
    I14(3)    R2        949
    I15(3)    OBJ       -537
    I15(3)    R0        -168
    I15(3)    R1        -905
    I15(3)    R2        876
    I16(3)    OBJ       -852
    I16(3)    R0        -405
    I16(3)    R1        -41
    I16(3)    R2        169
    I17(3)    OBJ       -808
    I17(3)    R0        -144
    I17(3)    R1        -24
    I17(3)    R2        990
    I18(3)    OBJ       -547
    I18(3)    R0        -975
    I18(3)    R1        -48
    I18(3)    R2        899
    I19(3)    OBJ       -659
    I19(3)    R0        -951
    I19(3)    R1        -16
    I19(3)    R2        216
    I20(3)    OBJ       -284
    I20(3)    R0        -802
    I20(3)    R1        -975
    I20(3)    R2        6
    I21(3)    OBJ       -200
    I21(3)    R0        -258
    I21(3)    R1        -849
    I21(3)    R2        874
    I22(3)    OBJ       -108
    I22(3)    R0        -151
    I22(3)    R1        -274
    I22(3)    R2        65
    I23(3)    OBJ       -198
    I23(3)    R0        -909
    I23(3)    R1        -125
    I23(3)    R2        279
    I24(3)    OBJ       -213
    I24(3)    R0        -456
    I24(3)    R1        -758
    I24(3)    R2        998
    I25(3)    OBJ       -187
    I25(3)    R0        -363
    I25(3)    R1        -729
    I25(3)    R2        822
    I26(3)    OBJ       -503
    I26(3)    R0        -96
    I26(3)    R1        -488
    I26(3)    R2        8
    I27(3)    OBJ       -655
    I27(3)    R0        -959
    I27(3)    R1        -853
    I27(3)    R2        485
    I28(3)    OBJ       -967
    I28(3)    R0        -17
    I28(3)    R1        -688
    I28(3)    R2        675
    I29(3)    OBJ       -232
    I29(3)    R0        -63
    I29(3)    R1        -504
    I29(3)    R2        695
    I30(1)    R2        1
    MARKER    'MARKER'                 'INTEND'
RHS
    RHS1      R0        -9668
    RHS1      R1        -9287
    RHS1      R2        8241
BOUNDS
 UP BND1      I0(3)     1
 UP BND1      I1(3)     1
 UP BND1      I2(3)     1
 UP BND1      I3(3)     1
 UP BND1      I4(3)     1
 UP BND1      I5(3)     1
 UP BND1      I6(3)     1
 UP BND1      I7(3)     1
 UP BND1      I8(3)     1
 UP BND1      I9(3)     1
 UP BND1      I10(3)    1
 UP BND1      I11(3)    1
 UP BND1      I12(3)    1
 UP BND1      I13(3)    1
 UP BND1      I14(3)    1
 UP BND1      I15(3)    1
 UP BND1      I16(3)    1
 UP BND1      I17(3)    1
 UP BND1      I18(3)    1
 UP BND1      I19(3)    1
 UP BND1      I20(3)    1
 UP BND1      I21(3)    1
 UP BND1      I22(3)    1
 UP BND1      I23(3)    1
 UP BND1      I24(3)    1
 UP BND1      I25(3)    1
 UP BND1      I26(3)    1
 UP BND1      I27(3)    1
 UP BND1      I28(3)    1
 UP BND1      I29(3)    1
 LI BND1      I30(1)    0
ENDATA
